 vasp.5.4.4.18Apr17-6-g9f103f2a35 (build Dec 27 2020 12:15:43) complex

 INCAR:
 POTCAR:    PAW_PBE Si 05Jan2001
 POTCAR:    PAW_PBE Si 05Jan2001
   VRHFIN =Si: s2p2

   TITEL  = PAW_PBE Si 05Jan2001
   POMASS =   28.085; ZVAL   =    4.000    mass and valenz
   ENMAX  =  245.345; ENMIN  =  184.009 eV

  PAW_PBE Si 05Jan2001                  :

 POSCAR: Si8
  positions in direct lattice
 exchange correlation table for  LEXCH =        8
   RHO(1)=    0.500       N(1)  =     2000
   RHO(2)=  100.500       N(2)  =     4000

 ion  position               nearest neighbor table
   1  0.250  0.250  0.250-   2 2.35   4 2.35   6 2.35   8 2.35
   2  0.000  0.500  0.500-   1 2.35   3 2.35   5 2.35   7 2.35
   3  0.250  0.750  0.750-   2 2.35   4 2.35   6 2.35   8 2.35
   4  0.000  0.000  0.000-   1 2.35   3 2.35   5 2.35   7 2.35
   5  0.750  0.250  0.750-   2 2.35   4 2.35   6 2.35   8 2.35
   6  0.500  0.500  0.000-   1 2.35   3 2.35   5 2.35   7 2.35
   7  0.750  0.750  0.250-   2 2.35   4 2.35   6 2.35   8 2.35
   8  0.500  0.000  0.500-   1 2.35   3 2.35   5 2.35   7 2.35

  LATTYP: Found a simple cubic cell.
 ALAT       =     5.4307000000

  Lattice vectors:

 A1 = (   5.4307000000,   0.0000000000,   0.0000000000)
 A2 = (   0.0000000000,   5.4307000000,   0.0000000000)
 A3 = (   0.0000000000,   0.0000000000,   5.4307000000)

Analysis of symmetry for initial positions (statically):
 Subroutine PRICEL returns following result:

  LATTYP: Found a face centered cubic cell.
 ALAT       =     5.4307000000

[...]

   4 primitive cells build up your supercell.

 Routine SETGRP: Setting up the symmetry group for a
 simple cubic supercell.

 Subroutine GETGRP returns: Found 48 space group operations
 (whereof 24 operations were pure point group operations)
 out of a pool of 48 trial point group operations.

The static configuration has the point symmetry T_d .
 The point group associated with its full space group is O_h .

Analysis of symmetry for dynamics (positions and initial velocities):
 Subroutine PRICEL returns following result:

  LATTYP: Found a face centered cubic cell.
 ALAT       =     5.4307000000

  Lattice vectors:

 A1 = (   2.7153500000,   2.7153500000,   0.0000000000)
 A2 = (   2.7153500000,   0.0000000000,  -2.7153500000)
 A3 = (   0.0000000000,   2.7153500000,  -2.7153500000)

   4 primitive cells build up your supercell.

 Routine SETGRP: Setting up the symmetry group for a
 simple cubic supercell.

 Subroutine GETGRP returns: Found 48 space group operations
 (whereof 24 operations were pure point group operations)
 out of a pool of 48 trial point group operations.

The dynamic configuration has the point symmetry T_d .
 The point group associated with its full space group is O_h .

 Subroutine INISYM returns: Found 48 space group operations
 (whereof 24 operations are pure point group operations),
 and found     4 'primitive' translations

 KPOINTS: pymatgen v2019.10.16 with grid density =

Automatic generation of k-mesh.
Space group operators:
 irot       det(A)        alpha          n_x          n_y          n_z        tau_x        tau_y        tau_z
    1     1.000000     0.000000     1.000000     0.000000     0.000000     0.000000     0.000000     0.000000
    2     1.000000   120.000000    -0.577350    -0.577350    -0.577350     0.000000     0.000000     0.000000
    3     1.000000   120.000000     0.577350     0.577350     0.577350     0.000000     0.000000     0.000000
    4    -1.000000    90.000000     0.000000     0.000000    -1.000000     0.000000     0.000000     0.000000
    5    -1.000000   180.000000     0.000000     0.707107     0.707107     0.000000     0.000000     0.000000
    6    -1.000000    90.000000     0.000000     1.000000     0.000000     0.000000     0.000000     0.000000
    7     1.000000   179.999999     0.000000     0.000000     1.000000     0.000000     0.000000     0.000000
    8     1.000000   120.000000    -0.577350     0.577350     0.577350     0.000000     0.000000     0.000000
    9     1.000000   120.000000    -0.577350     0.577350    -0.577350     0.000000     0.000000     0.000000
   10    -1.000000    90.000000     0.000000     0.000000     1.000000     0.000000     0.000000     0.000000
   11    -1.000000    90.000000    -1.000000     0.000000     0.000000     0.000000     0.000000     0.000000
   12    -1.000000   180.000000     0.707107     0.000000     0.707107     0.000000     0.000000     0.000000
   13     1.000000   120.000000     0.577350    -0.577350     0.577350     0.000000     0.000000     0.000000
   14     1.000000   120.000000    -0.577350    -0.577350     0.577350     0.000000     0.000000     0.000000
   15     1.000000   180.000000     1.000000     0.000000     0.000000     0.000000     0.000000     0.000000
   16    -1.000000    90.000000     0.000000    -1.000000     0.000000     0.000000     0.000000     0.000000
   17    -1.000000   180.000000     0.707107     0.707107     0.000000     0.000000     0.000000     0.000000
   18    -1.000000    90.000000     1.000000     0.000000     0.000000     0.000000     0.000000     0.000000
   19     1.000000   120.000000     0.577350    -0.577350    -0.577350     0.000000     0.000000     0.000000
   20     1.000000   180.000000     0.000000     1.000000     0.000000     0.000000     0.000000     0.000000
   21     1.000000   120.000000     0.577350     0.577350    -0.577350     0.000000     0.000000     0.000000
   22    -1.000000   180.000000     0.000000    -0.707107     0.707107     0.000000     0.000000     0.000000
   23    -1.000000   180.000000     0.707107    -0.707107     0.000000     0.000000     0.000000     0.000000
   24    -1.000000   180.000000     0.707107     0.000000    -0.707107     0.000000     0.000000     0.000000
   25    -1.000000     0.000000     1.000000     0.000000     0.000000     0.750000     0.750000    -0.750000
   26    -1.000000   120.000000    -0.577350    -0.577350    -0.577350     0.750000     0.750000    -0.750000
   27    -1.000000   120.000000     0.577350     0.577350     0.577350     0.750000     0.750000    -0.750000
   28     1.000000    90.000000     0.000000     0.000000    -1.000000     0.750000     0.750000    -0.750000
   29     1.000000   180.000000     0.000000     0.707107     0.707107     0.750000     0.750000    -0.750000
   30     1.000000    90.000000     0.000000     1.000000     0.000000     0.750000     0.750000    -0.750000
   31    -1.000000   179.999999     0.000000     0.000000     1.000000     0.750000     0.750000    -0.750000
   32    -1.000000   120.000000    -0.577350     0.577350     0.577350     0.750000     0.750000    -0.750000
   33    -1.000000   120.000000    -0.577350     0.577350    -0.577350     0.750000     0.750000    -0.750000
   34     1.000000    90.000000     0.000000     0.000000     1.000000     0.750000     0.750000    -0.750000
   35     1.000000    90.000000    -1.000000     0.000000     0.000000     0.750000     0.750000    -0.750000
   36     1.000000   180.000000     0.707107     0.000000     0.707107     0.750000     0.750000    -0.750000
   37    -1.000000   120.000000     0.577350    -0.577350     0.577350     0.750000     0.750000    -0.750000
   38    -1.000000   120.000000    -0.577350    -0.577350     0.577350     0.750000     0.750000    -0.750000
   39    -1.000000   180.000000     1.000000     0.000000     0.000000     0.750000     0.750000    -0.750000
   40     1.000000    90.000000     0.000000    -1.000000     0.000000     0.750000     0.750000    -0.750000
   41     1.000000   180.000000     0.707107     0.707107     0.000000     0.750000     0.750000    -0.750000
   42     1.000000    90.000000     1.000000     0.000000     0.000000     0.750000     0.750000    -0.750000
   43    -1.000000   120.000000     0.577350    -0.577350    -0.577350     0.750000     0.750000    -0.750000
   44    -1.000000   180.000000     0.000000     1.000000     0.000000     0.750000     0.750000    -0.750000
   45    -1.000000   120.000000     0.577350     0.577350    -0.577350     0.750000     0.750000    -0.750000
   46     1.000000   180.000000     0.000000    -0.707107     0.707107     0.750000     0.750000    -0.750000
   47     1.000000   180.000000     0.707107    -0.707107     0.000000     0.750000     0.750000    -0.750000
   48     1.000000   180.000000     0.707107     0.000000    -0.707107     0.750000     0.750000    -0.750000

 Subroutine IBZKPT returns following result:

 Found     20 irreducible k-points:

 Following reciprocal coordinates:
            Coordinates               Weight
  0.000000  0.000000  0.000000      1.000000
  0.142857  0.000000  0.000000      6.000000
  0.285714  0.000000  0.000000      6.000000
  0.428571  0.000000  0.000000      6.000000
  0.142857  0.142857  0.000000     12.000000
  0.285714  0.142857  0.000000     24.000000
  0.428571  0.142857  0.000000     24.000000
  0.285714  0.285714  0.000000     12.000000
  0.428571  0.285714  0.000000     24.000000
  0.428571  0.428571  0.000000     12.000000
  0.142857  0.142857  0.142857      8.000000
  0.285714  0.142857  0.142857     24.000000
  0.428571  0.142857  0.142857     24.000000
  0.285714  0.285714  0.142857     24.000000
  0.428571  0.285714  0.142857     48.000000
  0.428571  0.428571  0.142857     24.000000
  0.285714  0.285714  0.285714      8.000000
  0.428571  0.285714  0.285714     24.000000
  0.428571  0.428571  0.285714     24.000000
  0.428571  0.428571  0.428571      8.000000

 Following cartesian coordinates:
            Coordinates               Weight
  0.000000  0.000000  0.000000      1.000000
  0.026305  0.000000  0.000000      6.000000
  0.052611  0.000000  0.000000      6.000000
  0.078916  0.000000  0.000000      6.000000
  0.026305  0.026305  0.000000     12.000000
  0.052611  0.026305  0.000000     24.000000
  0.078916  0.026305  0.000000     24.000000
  0.052611  0.052611  0.000000     12.000000
  0.078916  0.052611  0.000000     24.000000
  0.078916  0.078916  0.000000     12.000000
  0.026305  0.026305  0.026305      8.000000
  0.052611  0.026305  0.026305     24.000000
  0.078916  0.026305  0.026305     24.000000
  0.052611  0.052611  0.026305     24.000000
  0.078916  0.052611  0.026305     48.000000
  0.078916  0.078916  0.026305     24.000000
  0.052611  0.052611  0.052611      8.000000
  0.078916  0.052611  0.052611     24.000000
  0.078916  0.078916  0.052611     24.000000
  0.078916  0.078916  0.078916      8.000000

 TETIRR: Found    163 inequivalent tetrahedra from     2058

 SYSTEM =  unknown system
 POSCAR =  Si8

 Startparameter for this run:
   NWRITE =      2    write-flag & timer
   PREC   = accura    normal or accurate (medium, high low for compatibility)
   ISTART =      0    job   : 0-new  1-cont  2-samecut
   ICHARG =      2    charge: 1-file 2-atom 10-const
   ISPIN  =      1    spin polarized calculation?
   LNONCOLLINEAR =      F non collinear calculations
   LSORBIT =      F    spin-orbit coupling
   INIWAV =      1    electr: 0-lowe 1-rand  2-diag
   LASPH  =      T    aspherical Exc in radial PAW
   METAGGA=      F    non-selfconsistent MetaGGA calc.

 Electronic Relaxation 1
[...]
   0.00000000  2.71535000  2.71535000
   1.35767500  4.07302500  4.07302500
   0.00000000  0.00000000  0.00000000
   4.07302500  1.35767500  4.07302500
   2.71535000  2.71535000  0.00000000
   4.07302500  4.07302500  1.35767500
   2.71535000  0.00000000  2.71535000

 k-point  1 :   0.0000 0.0000 0.0000  plane waves:    4697
 k-point  2 :   0.1429 0.0000 0.0000  plane waves:    4701
 k-point  3 :   0.2857 0.0000 0.0000  plane waves:    4713
 k-point  4 :   0.4286 0.0000 0.0000  plane waves:    4692
 k-point  5 :   0.1429 0.1429 0.0000  plane waves:    4693
 k-point  6 :   0.2857 0.1429 0.0000  plane waves:    4696
 k-point  7 :   0.4286 0.1429 0.0000  plane waves:    4703
 k-point  8 :   0.2857 0.2857 0.0000  plane waves:    4679
 k-point  9 :   0.4286 0.2857 0.0000  plane waves:    4694
 k-point 10 :   0.4286 0.4286 0.0000  plane waves:    4694
 k-point 11 :   0.1429 0.1429 0.1429  plane waves:    4701
 k-point 12 :   0.2857 0.1429 0.1429  plane waves:    4712
 k-point 13 :   0.4286 0.1429 0.1429  plane waves:    4707
 k-point 14 :   0.2857 0.2857 0.1429  plane waves:    4687
 k-point 15 :   0.4286 0.2857 0.1429  plane waves:    4676
 k-point 16 :   0.4286 0.4286 0.1429  plane waves:    4666
 k-point 17 :   0.2857 0.2857 0.2857  plane waves:    4680
 k-point 18 :   0.4286 0.2857 0.2857  plane waves:    4690
 k-point 19 :   0.4286 0.4286 0.2857  plane waves:    4675
 k-point 20 :   0.4286 0.4286 0.4286  plane waves:    4698

 maximum number of plane-waves:      4713
 maximum index in each direction:
   IXMAX=   10   IYMAX=   10   IZMAX=   10
   IXMIN=  -10   IYMIN=  -10   IZMIN=  -10

 Broyden mixing: mesh for mixing (old mesh)
   NGX = 21   NGY = 21   NGZ = 21
  (NGX  =100   NGY  =100   NGZ  =100)
  gives a total of   9261 points

 initial charge density was supplied:
 charge density of overlapping atoms calculated
 number of electron      32.0000000 magnetization
 keeping initial charge density in first step

 Maximum index for augmentation-charges        25341 (set IRDMAX)

 First call to EWALD:  gamma=   0.326
 Maximum number of real-space cells 3x 3x 3
 Maximum number of reciprocal cells 3x 3x 3

--------------------------------------- Iteration      1(   1)  ---------------------------------------

 BZINTS: Fermi energy: 12.912553; 32.000000 electrons
         Band energy: 136.423378;  BLOECHL correction: -0.081862

 eigenvalue-minimisations  :   840
 total energy-change (2. order) : 0.8257538E+02  (-0.1266632E+04)
 number of electron      32.0000000 magnetization
 augmentation part       32.0000000 magnetization

 Free energy of the ion-electron system (eV)
  alpha Z        PSCENC =        13.45138619
  Ewald energy   TEWEN  =      -914.13628809
  -Hartree energ DENC   =       -44.02754713
  -exchange      EXHF   =         0.00000000
  -V(xc)+E(xc)   XCENC  =       -74.41355220
  PAW double counting   =       704.99039692     -564.24414232
  entropy T*S    EENTRO =         0.00000000
  eigenvalues    EBANDS =       136.42337755
  atomic energy  EATOM  =       824.53175324
  Solvation  Ediel_sol  =         0.00000000
  free energy    TOTEN  =        82.57538417 eV

  energy without entropy =       82.57538417  energy(sigma->0) =       82.57538417

[...]

 eigenvalue-minimisations  :  1160
 total energy-change (2. order) :-0.1207935E+03  (-0.1147880E+03)
 number of electron      32.0000000 magnetization
 augmentation part       32.0000000 magnetization

[...]

 Broyden mixing:
  rms(total) = 0.97717E+00    rms(broyden)= 0.97717E+00
  rms(prec ) = 0.13600E+01
  weight for this iteration     100.00

[...]

 eigenvalues of (default mixing * dielectric matrix)
  average eigenvalue GAMMA=   2.5753
  2.5753

[...]

 eigenvalue-minimisations  :   963
 total energy-change (2. order) :-0.1333161E-03  (-0.3004418E-04)
 number of electron      31.9999999 magnetization
 augmentation part       -1.8351541 magnetization

 Broyden mixing:
  rms(total) = 0.16947E-02    rms(broyden)= 0.16947E-02
  rms(prec ) = 0.26412E-02
  weight for this iteration     100.00

 eigenvalues of (default mixing * dielectric matrix)
  average eigenvalue GAMMA=   2.0317
  3.1307  2.4754  2.4754  0.9558  1.1211

[...]

--------------------------------------- Iteration      1(  11)  ---------------------------------------

[...]

 eigenvalue-minimisations  :   756
 total energy-change (2. order) : 0.6818549E-05  (-0.3872019E-05)
 number of electron      31.9999999 magnetization
 augmentation part       -1.8351541 magnetization

 Free energy of the ion-electron system (eV)
  alpha Z        PSCENC =        13.45138619
  Ewald energy   TEWEN  =      -914.13628809
  -Hartree energ DENC   =       -59.67580248
  -exchange      EXHF   =         0.00000000
  -V(xc)+E(xc)   XCENC  =       -71.86140074
  PAW double counting   =      3477.39751868    -3337.54643643
  entropy T*S    EENTRO =         0.00000000
  eigenvalues    EBANDS =        24.45984967
  atomic energy  EATOM  =       824.53175324
  Solvation  Ediel_sol  =         0.00000000
  free energy    TOTEN  =       -43.37941996 eV

  energy without entropy =      -43.37941996  energy(sigma->0) =      -43.37941996

 average (electrostatic) potential at core
  the test charge radii are     0.9892
  (the norm of the test charge is              1.0000)
       1 -83.2506       2 -83.2506       3 -83.2506       4 -83.2506       5 -83.2506
       6 -83.2506       7 -83.2506       8 -83.2506

 E-fermi :   5.8445     XC(G=0):  -9.4094     alpha+bet :-11.9799

 k-point     1 :       0.0000    0.0000    0.0000
  band No.  band energies     occupation
      1      -6.1320      2.00000
      2      -1.9877      2.00000
      3      -1.9877      2.00000
      4      -1.9877      2.00000
      5      -1.9877      2.00000
      6      -1.9877      2.00000
      7      -1.9877      2.00000
      8       2.9766      2.00000
      9       2.9766      2.00000
     10       2.9766      2.00000
     11       2.9766      2.00000
     12       2.9766      2.00000
     13       2.9766      2.00000
     14       5.8253      2.00000
     15       5.8253      2.00000
     16       5.8253      2.00000
     17       6.5364      0.00000
     18       6.5364      0.00000
     19       6.5364      0.00000
     20       6.5364      0.00000
     21       6.5364      0.00000

[...]

 k-point    20 :       0.4286    0.4286    0.4286
  band No.  band energies     occupation
      1      -4.0568      2.00000
      2      -3.7734      2.00000
      3      -3.7734      2.00000
      4      -3.7734      2.00000
      5      -1.0636      2.00000
      6      -1.0636      2.00000
      7      -1.0636      2.00000
      8      -0.7581      2.00000
      9       4.1781      2.00000
     10       4.1781      2.00000
     11       4.1781      2.00000
     12       4.4957      2.00000
     13       4.4957      2.00000
     14       4.4957      2.00000
     15       4.6652      2.00000
     16       4.6652      2.00000
     17       7.4080      0.00000
     18       7.7818      0.00000
     19       7.7818      0.00000
     20       7.7818      0.00000
     21       9.0906      0.00000

 soft charge-density along one line, spin component           1
         0         1         2         3         4         5         6         7         8         9
x    33.8352    0.0000    0.0000    0.0000    0.0000    0.0000   -0.0000    0.0000   -0.8990    0.0000
x     0.0000    0.0000    0.0000    0.0000    0.0000    0.0000   -0.0197   -0.0000    0.0000   -0.0000
x     0.0000   -0.0000    0.0000   -0.0000   -0.0001   -0.0000   -0.0000    0.0000    0.0000   -0.0000
x    -0.0000    0.0000    0.0000    0.0000   -0.0000    0.0000    0.0000    0.0000   -0.0000   -0.0000
x    -0.0000    0.0000    0.0000    0.0000
y    33.8352    0.0000    0.0000    0.0000    0.0000    0.0000   -0.0000    0.0000   -0.8990    0.0000
y     0.0000    0.0000    0.0000    0.0000    0.0000    0.0000   -0.0197   -0.0000    0.0000   -0.0000
y     0.0000   -0.0000    0.0000   -0.0000   -0.0001   -0.0000   -0.0000    0.0000    0.0000   -0.0000
y    -0.0000    0.0000    0.0000    0.0000   -0.0000    0.0000    0.0000    0.0000   -0.0000   -0.0000
y    -0.0000    0.0000    0.0000    0.0000
z    33.8352    0.0000    0.0000    0.0000    0.0000    0.0000   -0.0000    0.0000   -0.8990    0.0000
z     0.0000    0.0000    0.0000    0.0000    0.0000    0.0000   -0.0197   -0.0000    0.0000   -0.0000
z     0.0000   -0.0000    0.0000   -0.0000   -0.0001   -0.0000   -0.0000    0.0000    0.0000   -0.0000
z    -0.0000    0.0000    0.0000    0.0000   -0.0000    0.0000    0.0000    0.0000   -0.0000   -0.0000
z    -0.0000    0.0000    0.0000    0.0000
 total charge-density along one line
x    32.0000    0.0000   -0.0000    0.0000    0.0000    0.0000   -0.0000    0.0000   -1.6526   -0.0000
x     0.0000    0.0000    0.0000    0.0000   -0.0000    0.0000   -0.0261   -0.0000    0.0000    0.0000
x    -0.0000   -0.0000    0.0000    0.0000   -0.0019    0.0000   -0.0000   -0.0000    0.0000    0.0000
x    -0.0000   -0.0000    0.0002    0.0000   -0.0000   -0.0000    0.0000    0.0000   -0.0000    0.0000
x     0.0001   -0.0000   -0.0000    0.0000   -0.0000   -0.0000    0.0000    0.0000   -0.0000   -0.0000
x     0.0000    0.0000   -0.0000    0.0000   -0.0000   -0.0000   -0.0000    0.0000   -0.0000    0.0000
x    -0.0000   -0.0000   -0.0000   -0.0000    0.0000    0.0000   -0.0000   -0.0000   -0.0000    0.0000
x     0.0000    0.0000    0.0000    0.0000   -0.0000    0.0000    0.0000    0.0000   -0.0000    0.0000
x    -0.0000   -0.0000    0.0000   -0.0000    0.0000    0.0000   -0.0000    0.0000   -0.0000   -0.0000
x    -0.0000    0.0000    0.0000   -0.0000    0.0000    0.0000    0.0000   -0.0000   -0.0000    0.0000
x     0.0000    0.0000
y    32.0000    0.0000   -0.0000    0.0000    0.0000    0.0000   -0.0000    0.0000   -1.6526   -0.0000
y     0.0000    0.0000    0.0000    0.0000   -0.0000    0.0000   -0.0261   -0.0000    0.0000    0.0000
y    -0.0000   -0.0000    0.0000    0.0000   -0.0019    0.0000   -0.0000   -0.0000    0.0000    0.0000
y     0.0000   -0.0000    0.0002   -0.0000   -0.0000   -0.0000    0.0000    0.0000   -0.0000    0.0000
y     0.0001    0.0000    0.0000    0.0000    0.0000    0.0000    0.0000    0.0000   -0.0000    0.0000
y    -0.0000   -0.0000   -0.0000    0.0000   -0.0000   -0.0000   -0.0000    0.0000   -0.0000    0.0000
y    -0.0000   -0.0000    0.0000    0.0000    0.0000    0.0000   -0.0000    0.0000   -0.0000   -0.0000
y    -0.0000   -0.0000    0.0000   -0.0000   -0.0000   -0.0000   -0.0000   -0.0000    0.0000    0.0000
y    -0.0000   -0.0000    0.0000   -0.0000    0.0000    0.0000    0.0000    0.0000   -0.0000    0.0000
y    -0.0000    0.0000    0.0000   -0.0000    0.0000   -0.0000    0.0000   -0.0000   -0.0000    0.0000
y    -0.0000    0.0000
z    32.0000    0.0000   -0.0000    0.0000    0.0000    0.0000    0.0000    0.0000   -1.6526   -0.0000
z     0.0000    0.0000   -0.0000   -0.0000   -0.0000    0.0000   -0.0261    0.0000   -0.0000    0.0000
z     0.0000    0.0000    0.0000    0.0000   -0.0019    0.0000    0.0000    0.0000   -0.0000    0.0000
z    -0.0000   -0.0000    0.0002   -0.0000    0.0000   -0.0000    0.0000    0.0000   -0.0000    0.0000
z     0.0001    0.0000    0.0000    0.0000    0.0000    0.0000    0.0000   -0.0000   -0.0000   -0.0000
z    -0.0000    0.0000   -0.0000    0.0000    0.0000   -0.0000   -0.0000   -0.0000    0.0000   -0.0000
z     0.0000   -0.0000   -0.0000   -0.0000    0.0000   -0.0000    0.0000   -0.0000    0.0000    0.0000
z    -0.0000    0.0000    0.0000   -0.0000   -0.0000    0.0000    0.0000    0.0000    0.0000   -0.0000
z    -0.0000    0.0000    0.0000   -0.0000    0.0000    0.0000    0.0000    0.0000   -0.0000    0.0000
z     0.0000   -0.0000    0.0000   -0.0000   -0.0000   -0.0000    0.0000    0.0000   -0.0000    0.0000
z    -0.0000    0.0000

------------------------ aborting loop because EDIFF is reached ----------------------------------------

 total charge

# of ion       s       p       d       tot
    1        0.751   0.942   0.000   1.693
    2        0.751   0.942   0.000   1.693
    3        0.751   0.942   0.000   1.693
    4        0.751   0.942   0.000   1.693
    5        0.751   0.942   0.000   1.693
    6        0.751   0.942   0.000   1.693
    7        0.751   0.942   0.000   1.693
    8        0.751   0.942   0.000   1.693
tot          6.008   7.538   0.000  13.546

  FORCE on cell =-STRESS in cart. coord.  units (eV):
  Direction    XX          YY          ZZ          XY          YZ          ZX
  Alpha Z    13.45139    13.45139    13.45139
  Ewald    -304.71262  -304.71262  -304.71262     0.00000    -0.00000     0.00000
  Hartree    19.89665    19.89665    19.89665    -0.00000     0.00000    -0.00000
  E(xc)    -101.46791  -101.46791  -101.46791    -0.00000    -0.00000     0.00000
  Local    -116.86391  -116.86391  -116.86391     0.00000     0.00000    -0.00000
  n-local   311.32308   314.58212   308.14242    -3.05061    -2.16786    -1.56118
  augment   -46.61825   -46.61825   -46.61825    -0.00000     0.00000     0.00000
  Kinetic   219.75918   231.23252   229.75408    -3.87795    -4.85970    -2.62914
  Fock        0.00000     0.00000     0.00000     0.00000     0.00000     0.00000
  Total       1.94982     1.94982     1.94982     0.00000    -0.00000     0.00000
  in kB      19.50465    19.50465    19.50465     0.00000    -0.00000     0.00000

 VOLUME and BASIS-vectors are now :
  energy-cutoff  :      550.00
  volume of cell :      160.16
      direct lattice vectors                 reciprocal lattice vectors
     5.430700000  0.000000000  0.000000000     0.184138325  0.000000000  0.000000000
     0.000000000  5.430700000  0.000000000     0.000000000  0.184138325  0.000000000
     0.000000000  0.000000000  5.430700000     0.000000000  0.000000000  0.184138325

  length of vectors
     5.430700000  5.430700000  5.430700000     0.184138325  0.184138325  0.184138325

 FORCES acting on ions
    electron-ion (+dipol)            ewald-force                    non-local-force                 convergence-correction
   0.857E-14 0.636E-14 0.970E-14   0.355E-14 -.355E-14 0.000E+00   -.208E-16 -.273E-16 0.260E-16   0.182E-14 -.890E-16 0.272E-14
   0.107E-13 0.929E-14 -.715E-14   -.642E-14 0.477E-15 0.355E-14   -.130E-16 0.000E+00 -.286E-16   -.250E-14 -.269E-14 -.928E-15
   0.439E-14 -.123E-13 0.147E-13   0.107E-13 0.355E-14 0.355E-14   0.694E-17 0.217E-17 0.252E-16   0.210E-14 -.407E-15 -.223E-14
   0.956E-14 -.218E-14 -.552E-14   -.814E-15 0.711E-14 0.729E-14   -.867E-17 0.000E+00 -.295E-16   -.273E-14 -.188E-14 -.227E-14
   0.167E-13 -.937E-14 0.125E-13   0.000E+00 -.711E-14 -.711E-14   0.173E-16 0.217E-17 0.252E-16   -.401E-14 0.101E-15 -.157E-14
   0.111E-13 0.124E-13 -.277E-14   -.142E-13 -.297E-14 -.337E-14   0.139E-16 0.139E-16 -.226E-16   -.199E-14 -.280E-14 -.246E-14
   0.167E-13 -.141E-14 0.527E-14   0.711E-14 0.000E+00 -.355E-14   0.694E-17 -.434E-18 0.243E-16   -.419E-14 -.256E-15 0.280E-14
   0.703E-14 0.160E-14 -.688E-14   -.705E-14 0.356E-14 -.949E-17   0.867E-18 -.694E-17 -.286E-16   -.227E-14 -.249E-14 -.108E-14
   0.848E-13 0.443E-14 0.198E-13   -.714E-14 0.108E-14 0.357E-15   0.347E-17 -.165E-16 -.867E-17   -.138E-13 -.105E-13 -.502E-14

 POSITION                                       TOTAL-FORCE (eV/Angst)
      1.35767      1.35767      1.35767         0.000000      0.000000     -0.000000
      0.00000      2.71535      2.71535        -0.000000     -0.000000      0.000000
      1.35767      4.07302      4.07302        -0.000000      0.000000     -0.000000
      0.00000      0.00000      0.00000         0.000000     -0.000000      0.000000
      4.07302      1.35767      4.07302        -0.000000      0.000000     -0.000000
      2.71535      2.71535      0.00000        -0.000000     -0.000000      0.000000
      4.07302      4.07302      1.35767        -0.000000      0.000000      0.000000
      2.71535      0.00000      2.71535         0.000000     -0.000000      0.000000
    total drift:                                0.000000     -0.000000      0.000000

  FREE ENERGIE OF THE ION-ELECTRON SYSTEM (eV)
  free  energy   TOTEN  =       -43.37941996 eV

  energy  without entropy=      -43.37941996  energy(sigma->0) =      -43.37941996

 total charge

# of ion       s       p       d       tot
    1        0.751   0.942   0.000   1.693
    2        0.751   0.942   0.000   1.693
    3        0.751   0.942   0.000   1.693
    4        0.751   0.942   0.000   1.693
    5        0.751   0.942   0.000   1.693
    6        0.751   0.942   0.000   1.693
    7        0.751   0.942   0.000   1.693
    8        0.751   0.942   0.000   1.693
tot          6.008   7.538   0.000  13.546

 BZINTS: Fermi energy:  5.844453; 32.000000 electrons
         Band energy:  24.459850;  BLOECHL correction:  0.000000